(set-logic QF_BV)
(declare-fun x0 () (_ BitVec 192))
(declare-fun x1 () (_ BitVec 192))
(declare-fun x2 () (_ BitVec 192))
(assert (= x0 (_ bv0 192)))
(assert (= x1 (bvmul x2 x0)))
(assert (= false (= x1 (_ bv0 192))))
(check-sat)
(exit)
